p cnf 7230 18
7039 7041 7043 7045 -7075 0
-7039 -7076 0
-6997 -7035 7072 0
-7041 -7076 0
6997 -7072 0
-6999 -7037 -7073 0
6999 -7074 0
-7043 -7076 0
7075 7076 0
7073 7074 0
7037 -7074 0
-7045 -7076 0
7071 7072 0
-7071 -7072 0
-7053 -7078 0
-7051 -7078 0
-7049 -7078 0
-7047 -7078 0
